
******************************************************************************
This program contains Ipopt, a library for large-scale nonlinear optimization.
 Ipopt is released as open source code under the Eclipse Public License (EPL).
         For more information visit http://projects.coin-or.org/Ipopt
******************************************************************************

This is Ipopt version 3.12.6, running with linear solver ma57.

Number of nonzeros in equality constraint Jacobian...:        0
Number of nonzeros in inequality constraint Jacobian.:        9
Number of nonzeros in Lagrangian Hessian.............:        2

Total number of variables............................:        3
                     variables with only lower bounds:        0
                variables with lower and upper bounds:        0
                     variables with only upper bounds:        0
Total number of equality constraints.................:        0
Total number of inequality constraints...............:        3
        inequality constraints with only lower bounds:        0
   inequality constraints with lower and upper bounds:        0
        inequality constraints with only upper bounds:        3

iter    objective    inf_pr   inf_du lg(mu)  ||d||  lg(rg) alpha_du alpha_pr  ls
   0  0.0000000e+00 5.60e+01 1.23e+00  -1.0 0.00e+00    -  0.00e+00 0.00e+00   0
   1  3.7749778e+00 5.38e+00 5.43e-01  -1.0 3.77e+00    -  9.39e-01 1.00e+00h  1
   2  7.7842702e+00 5.35e-02 4.54e-02  -1.0 1.05e+01    -  1.79e-01 1.00e+00h  1
   3  6.7430622e+00 5.14e-01 2.00e-07  -1.7 2.25e+01    -  1.00e+00 1.00e+00f  1
   4  7.2397361e+00 0.00e+00 2.00e-07  -1.7 7.18e-01    -  1.00e+00 1.00e+00h  1
   5  7.2001520e+00 0.00e+00 1.50e-09  -3.8 4.01e-01    -  1.00e+00 1.00e+00f  1
   6  7.2000036e+00 0.00e+00 1.84e-11  -5.7 6.61e-03    -  1.00e+00 1.00e+00h  1
Reallocating memory for MA57: lfact (132)
   7  7.2000000e+00 0.00e+00 2.51e-14  -8.6 3.82e-05    -  1.00e+00 1.00e+00h  1

Number of Iterations....: 7

                                   (scaled)                 (unscaled)
Objective...............:   7.1999999950104536e+00    7.1999999950104536e+00
Dual infeasibility......:   2.5063284780912909e-14    2.5063284780912909e-14
Constraint violation....:   0.0000000000000000e+00    0.0000000000000000e+00
Complementarity.........:   2.5081996477949809e-09    2.5081996477949809e-09
Overall NLP error.......:   2.5081996477949809e-09    2.5081996477949809e-09


Number of objective function evaluations             = 8
Number of objective gradient evaluations             = 8
Number of equality constraint evaluations            = 0
Number of inequality constraint evaluations          = 8
Number of equality constraint Jacobian evaluations   = 0
Number of inequality constraint Jacobian evaluations = 8
Number of Lagrangian Hessian evaluations             = 7
Total CPU secs in IPOPT (w/o function evaluations)   =      0.003
Total CPU secs in NLP function evaluations           =      0.000

EXIT: Optimal Solution Found.

************************ CUTEst statistics ************************


 Package used            :  IPOPT
 Problem                 :  MAKELA2   
 # variables             =               3
 # constraints           =               3
 # objective functions   =        0.1700000E+02
 # objective gradients   =        0.9000000E+01
 # objective Hessians    =        0.8000000E+01
 # Hessian-vector prdct  =        0.0000000E+00
 # constraints functions =        0.1800000E+02
 # constraints gradients =        0.1000000E+02
 # constraints Hessians  =        0.8000000E+01
 Exit code               =               0
 Final f                 =   0.7200000E+01
 Set up time             =            0.00 seconds
 Solve time              =            0.01 seconds


******************************************************************

System Time =       0.0030000000 s.
